peakDumbCharging = 22200; 
Machine = anon_enum(16); 
machineSpeed = [3700,3700,3700,3700,3700,3700,3700,3700,3700,3700,3700,3700,3700,3700,3700,3700]; 
machineLoad = [3700,3700,3700,3700,3700,3700,3700,3700,3700,3700,3700,3700,3700,3700,3700,3700]; 
Car = anon_enum(30); 
demandCar = [7520,6680,17680,2160,14880,8400,8840,13960,6880,4440,11960,11280,1520,12880,9920,12800,11520,15080,3320,17240,15040,6280,5240,10680,4720,18080,8080,4240,23800,4400]; 
arrivalCar = [72,71,71,69,67,66,65,65,63,63,63,62,61,57,56,55,54,53,50,48,47,46,45,43,43,40,38,36,34,27]; 
departureCar = [75,74,78,72,73,70,69,70,66,66,67,72,63,65,62,60,58,65,59,59,56,49,47,47,46,47,43,39,44,32]; 
